EGSTP_runtime_files/empty-32-32_p_safe_0.8_typeOfTest_3_mEgtsp.gtsp
NAME : mEgtspf
TYPE : AGTSP
DIMENSION : 50
GTSP_SETS : 20
EDGE_WEIGHT_TYPE : EXPLICIT
EDGE_WEIGHT_FORMAT : FULL_MATRIX
EDGE_WEIGHT_SECTION
0 0 0 0 0 0 0 0 0 0 13 12 13 14 35 34 35 36 22 23 24 23 37 36 37 38 39 38 39 40 40 39 40 41 41 40 41 42 24 25 24 23 26 27 26 25 48 47 48 49
0 0 0 0 0 0 0 0 0 0 11 12 13 12 31 30 31 32 38 37 38 39 17 16 17 18 29 28 29 30 22 21 22 23 21 20 21 22 10 9 8 9 12 11 10 11 28 27 28 29
0 0 0 0 0 0 0 0 0 0 34 35 34 33 12 13 12 11 13 14 15 14 36 37 36 35 14 15 14 13 21 22 21 20 32 33 32 31 47 48 47 46 49 50 49 48 23 24 23 22
0 0 0 0 0 0 0 0 0 0 30 31 32 31 12 13 14 13 25 26 27 26 16 17 16 15 10 11 12 11 3 4 5 4 12 13 12 11 27 28 27 26 29 30 29 28 9 8 9 10
0 0 0 0 0 0 0 0 0 0 14 13 12 13 36 35 34 35 33 32 33 34 38 37 36 37 40 39 38 39 41 40 39 40 42 41 40 41 19 18 17 18 21 20 19 20 49 48 47 48
0 0 0 0 0 0 0 0 0 0 21 22 21 20 33 32 31 32 16 15 14 15 35 34 33 34 37 36 35 36 38 37 36 37 39 38 37 38 34 35 34 33 36 37 36 35 46 45 44 45
0 0 0 0 0 0 0 0 0 0 23 24 23 22 35 34 35 36 42 41 42 43 11 10 11 12 33 32 33 34 26 25 26 27 15 14 15 16 18 19 18 17 16 17 16 15 24 23 24 25
0 0 0 0 0 0 0 0 0 0 11 10 9 10 33 32 31 32 28 29 30 29 35 34 33 34 37 36 35 36 38 37 36 37 39 38 37 38 18 19 18 17 20 21 20 19 46 45 44 45
0 0 0 0 0 0 0 0 0 0 19 20 21 20 39 38 39 40 46 45 46 47 15 14 15 16 37 36 37 38 30 29 30 31 19 18 19 20 14 15 16 15 12 13 14 13 28 27 28 29
0 0 0 0 0 0 0 0 0 0 22 21 20 21 36 35 34 35 19 18 17 18 38 37 36 37 40 39 38 39 41 40 39 40 42 41 40 41 35 34 33 34 37 36 35 36 49 48 47 48
0 0 0 0 0 0 0 0 0 0 0 0 0 0 24 23 24 25 31 30 31 32 28 27 26 27 30 29 28 29 31 30 29 30 32 31 30 31 17 16 15 16 19 18 17 18 39 38 37 38
0 0 0 0 0 0 0 0 0 0 0 0 0 0 23 22 23 24 30 31 32 31 27 26 25 26 29 28 27 28 30 29 28 29 31 30 29 30 16 17 16 15 18 19 18 17 38 37 36 37
0 0 0 0 0 0 0 0 0 0 0 0 0 0 24 23 24 25 31 32 33 32 26 25 26 27 28 27 28 29 29 28 29 30 30 29 30 31 15 16 15 14 17 18 17 16 37 36 37 38
0 0 0 0 0 0 0 0 0 0 0 0 0 0 25 24 25 26 32 31 32 33 27 26 27 28 29 28 29 30 30 29 30 31 31 30 31 32 16 15 14 15 18 17 16 17 38 37 38 39
0 0 0 0 0 0 0 0 0 0 24 25 24 23 0 0 0 0 19 20 19 18 28 27 26 27 8 7 6 7 13 12 11 12 24 23 22 23 39 38 37 38 41 40 39 40 17 16 15 16
0 0 0 0 0 0 0 0 0 0 25 26 25 24 0 0 0 0 20 21 20 19 27 28 27 26 7 6 5 6 12 13 12 11 23 24 23 22 38 39 38 37 40 41 40 39 16 15 14 15
0 0 0 0 0 0 0 0 0 0 24 25 24 23 0 0 0 0 19 20 21 20 26 27 26 25 6 5 6 7 11 12 11 10 22 23 22 21 37 38 37 36 39 40 39 38 15 14 15 16
0 0 0 0 0 0 0 0 0 0 23 24 23 22 0 0 0 0 18 19 20 19 27 26 25 26 7 6 7 8 12 11 10 11 23 22 21 22 38 37 36 37 40 39 38 39 16 15 16 17
0 0 0 0 0 0 0 0 0 0 33 32 31 32 21 20 19 20 0 0 0 0 35 34 33 34 25 24 23 24 26 25 24 25 31 30 29 30 46 45 44 45 48 47 46 47 34 33 32 33
0 0 0 0 0 0 0 0 0 0 32 33 32 31 20 19 18 19 0 0 0 0 34 35 34 33 24 23 22 23 25 24 23 24 30 31 30 29 45 46 45 44 47 48 47 46 33 32 31 32
0 0 0 0 0 0 0 0 0 0 31 32 31 30 19 18 19 20 0 0 0 0 33 34 33 32 23 22 23 24 24 23 24 25 29 30 29 28 44 45 44 43 46 47 46 45 32 31 32 33
0 0 0 0 0 0 0 0 0 0 32 31 30 31 20 19 20 21 0 0 0 0 34 33 32 33 24 23 24 25 25 24 25 26 30 29 28 29 45 44 43 44 47 46 45 46 33 32 33 34
0 0 0 0 0 0 0 0 0 0 26 27 26 25 26 25 26 27 33 32 33 34 0 0 0 0 24 23 24 25 17 16 17 18 6 5 6 7 21 22 21 20 19 20 19 18 15 14 15 16
0 0 0 0 0 0 0 0 0 0 27 28 27 26 25 26 27 26 32 33 34 33 0 0 0 0 23 24 25 24 16 17 18 17 5 4 5 6 22 23 22 21 20 21 20 19 14 15 16 15
0 0 0 0 0 0 0 0 0 0 26 27 28 27 26 27 28 27 33 34 35 34 0 0 0 0 24 25 26 25 17 18 19 18 6 5 6 7 21 22 23 22 19 20 21 20 15 16 17 16
0 0 0 0 0 0 0 0 0 0 25 26 27 26 27 26 27 28 34 33 34 35 0 0 0 0 25 24 25 26 18 17 18 19 7 6 7 8 20 21 22 21 18 19 20 19 16 15 16 17
0 0 0 0 0 0 0 0 0 0 28 29 28 27 6 7 6 5 23 24 23 22 26 25 24 25 0 0 0 0 11 10 9 10 22 21 20 21 37 36 35 36 39 38 37 38 13 12 11 12
0 0 0 0 0 0 0 0 0 0 29 30 29 28 7 8 7 6 24 25 24 23 25 26 25 24 0 0 0 0 10 11 10 9 21 22 21 20 36 37 36 35 38 39 38 37 12 11 10 11
0 0 0 0 0 0 0 0 0 0 28 29 30 29 6 7 8 7 23 24 25 24 24 25 24 23 0 0 0 0 9 10 9 8 20 21 20 19 35 36 35 34 37 38 37 36 11 10 9 10
0 0 0 0 0 0 0 0 0 0 27 28 29 28 5 6 7 6 22 23 24 23 25 24 23 24 0 0 0 0 10 9 8 9 21 20 19 20 36 35 34 35 38 37 36 37 12 11 10 11
0 0 0 0 0 0 0 0 0 0 29 30 29 28 11 10 11 12 24 25 24 23 19 18 17 18 9 8 9 10 0 0 0 0 15 14 13 14 30 29 28 29 32 31 30 31 12 11 10 11
0 0 0 0 0 0 0 0 0 0 30 31 30 29 10 11 12 11 25 26 25 24 18 19 18 17 8 9 10 9 0 0 0 0 14 15 14 13 29 30 29 28 31 32 31 30 11 10 9 10
0 0 0 0 0 0 0 0 0 0 29 30 31 30 11 12 13 12 24 25 26 25 17 18 17 16 9 10 11 10 0 0 0 0 13 14 13 12 28 29 28 27 30 31 30 29 10 9 10 11
0 0 0 0 0 0 0 0 0 0 28 29 30 29 12 11 12 13 23 24 25 24 18 17 16 17 10 9 10 11 0 0 0 0 14 13 12 13 29 28 27 28 31 30 29 30 11 10 11 12
0 0 0 0 0 0 0 0 0 0 30 31 30 29 22 21 22 23 29 28 29 30 6 7 6 5 20 19 20 21 13 12 13 14 0 0 0 0 25 26 25 24 23 24 23 22 11 10 11 12
0 0 0 0 0 0 0 0 0 0 31 32 31 30 21 22 23 22 28 29 30 29 7 8 7 6 19 20 21 20 12 13 14 13 0 0 0 0 26 27 26 25 24 25 24 23 10 11 12 11
0 0 0 0 0 0 0 0 0 0 30 31 32 31 22 23 24 23 29 30 31 30 6 7 6 5 20 21 22 21 13 14 15 14 0 0 0 0 25 26 27 26 23 24 25 24 11 12 13 12
0 0 0 0 0 0 0 0 0 0 29 30 31 30 23 22 23 24 30 29 30 31 5 6 5 4 21 20 21 22 14 13 14 15 0 0 0 0 24 25 26 25 22 23 24 23 12 11 12 13
0 0 0 0 0 0 0 0 0 0 15 14 15 16 37 36 37 38 44 43 44 45 23 22 21 22 35 34 35 36 28 27 28 29 27 26 25 26 0 0 0 0 6 5 4 5 34 33 32 33
0 0 0 0 0 0 0 0 0 0 14 15 16 15 36 37 38 37 43 44 45 44 22 21 20 21 34 35 36 35 27 28 29 28 26 25 24 25 0 0 0 0 5 4 3 4 33 32 31 32
0 0 0 0 0 0 0 0 0 0 15 16 17 16 37 38 39 38 44 45 46 45 21 20 21 22 35 36 37 36 28 29 30 29 25 24 25 26 0 0 0 0 4 3 2 3 32 31 32 33
0 0 0 0 0 0 0 0 0 0 16 15 16 17 38 37 38 39 45 44 45 46 22 21 22 23 36 35 36 37 29 28 29 30 26 25 26 27 0 0 0 0 5 4 3 4 33 32 33 34
0 0 0 0 0 0 0 0 0 0 17 16 17 18 39 38 39 40 46 45 46 47 21 20 19 20 37 36 37 38 30 29 30 31 25 24 23 24 2 3 4 3 0 0 0 0 32 31 30 31
0 0 0 0 0 0 0 0 0 0 16 17 18 17 38 39 40 39 45 46 47 46 20 19 18 19 36 37 38 37 29 30 31 30 24 23 22 23 3 4 5 4 0 0 0 0 31 30 29 30
0 0 0 0 0 0 0 0 0 0 17 18 19 18 39 40 41 40 46 47 48 47 19 18 19 20 37 38 39 38 30 31 32 31 23 22 23 24 4 5 6 5 0 0 0 0 30 29 30 31
0 0 0 0 0 0 0 0 0 0 18 17 18 19 40 39 40 41 47 46 47 48 20 19 20 21 38 37 38 39 31 30 31 32 24 23 24 25 3 4 5 4 0 0 0 0 31 30 31 32
0 0 0 0 0 0 0 0 0 0 37 38 37 36 15 16 15 14 32 33 32 31 17 16 15 16 9 10 11 10 10 11 10 9 13 12 11 12 32 33 32 31 30 31 30 29 0 0 0 0
0 0 0 0 0 0 0 0 0 0 38 39 38 37 16 17 16 15 33 34 33 32 16 17 16 15 10 11 12 11 11 12 11 10 12 13 12 11 33 34 33 32 31 32 31 30 0 0 0 0
0 0 0 0 0 0 0 0 0 0 37 38 39 38 15 16 17 16 32 33 34 33 15 16 15 14 11 12 13 12 10 11 12 11 11 12 11 10 32 33 34 33 30 31 32 31 0 0 0 0
0 0 0 0 0 0 0 0 0 0 36 37 38 37 14 15 16 15 31 32 33 32 16 15 14 15 10 11 12 11 9 10 11 10 12 11 10 11 31 32 33 32 29 30 31 30 0 0 0 0
GTSP_SET_SECTION
1 1 -1
2 2 -1
3 3 -1
4 4 -1
5 5 -1
6 6 -1
7 7 -1
8 8 -1
9 9 -1
10 10 -1
11 11 12 13 14 -1
12 15 16 17 18 -1
13 19 20 21 22 -1
14 23 24 25 26 -1
15 27 28 29 30 -1
16 31 32 33 34 -1
17 35 36 37 38 -1
18 39 40 41 42 -1
19 43 44 45 46 -1
20 47 48 49 50 -1
