EGSTP_runtime_files/empty-32-32_p_safe_0.8_typeOfTest_3_mEgtsp.tour
NAME : mEgtspf.73.tour
COMMENT : Length = 73
COMMENT : Found by GLKH [Keld Helsgaun] Wed May  7 12:09:58 2025
TYPE : TOUR
DIMENSION : 20
TOUR_SECTION
1
9
2
41
45
8
13
3
19
4
32
27
18
7
24
36
47
10
5
6
-1
EOF
